letting n_nurses=25
letting n_days=7
letting n_shift_types=4
letting max_covers=16
letting t_covers=87
letting covers=[13,1,1,0,3,14,0,0,2,13,0,0,16,3,0,0,2,2,0,0,0,3,0,0,2,12,0,0]
letting prefes=[4,3,4,1,1,1,1,3,1,1,1,3,1,3,1,3,1,3,1,3,4,3,4,1,4,3,4,1,4,1,1,1,3,1,1,3,3,1,1,3,4,3,1,3,4,3,1,3,4,1,1,1,4,1,1,1,4,1,1,1,3,3,1,3,3,3,1,3,4,3,1,3,4,3,1,3,4,1,1,1,4,1,1,1,4,3,1,1,3,1,1,3,3,1,1,3,4,3,4,3,4,3,4,3,4,3,1,1,4,3,1,1,4,1,4,1,3,1,1,4,3,1,1,4,1,3,1,3,1,3,1,3,4,1,4,1,4,1,4,1,1,3,1,1,3,1,1,4,3,1,1,4,4,3,1,3,4,3,1,3,1,3,1,1,1,3,1,1,4,3,1,1,3,1,1,3,3,1,1,3,4,3,1,3,4,3,1,3,4,3,1,1,4,3,1,1,4,3,1,1,1,1,1,3,1,1,1,3,4,1,1,1,4,1,1,1,4,3,1,1,4,3,1,1,4,3,1,1,1,3,1,3,1,3,1,3,4,1,4,1,4,1,4,1,4,3,1,1,4,3,1,1,4,3,1,3,3,1,1,3,3,1,1,3,4,3,4,3,4,3,4,3,4,3,1,3,4,3,1,3,4,3,1,1,3,1,1,3,3,1,1,3,4,3,1,3,4,3,1,3,4,3,1,1,4,3,1,1,4,3,4,3,1,3,4,3,1,3,4,3,4,1,4,1,4,1,4,1,4,3,4,3,4,3,4,3,4,3,4,1,3,1,4,3,3,1,4,3,4,3,1,3,4,3,1,3,4,3,4,1,4,3,4,1,4,3,4,3,3,1,1,3,3,1,1,3,4,3,1,3,4,3,1,3,4,3,4,3,4,3,4,3,4,3,1,3,3,1,4,3,3,1,4,3,4,3,1,3,4,3,1,3,4,3,1,3,4,3,1,3,1,1,1,1,3,1,1,3,3,1,1,3,1,3,1,3,1,3,1,3,1,1,1,1,1,1,1,1,1,3,1,1,3,1,1,3,3,1,1,3,4,3,1,3,4,3,1,3,1,3,1,1,1,3,1,1,4,3,1,3,3,1,4,3,3,1,4,3,1,3,1,3,1,3,1,3,4,3,1,3,4,3,1,3,4,3,1,1,3,3,1,3,3,3,1,3,4,3,1,3,4,3,1,3,4,3,1,1,4,3,1,1,4,1,1,1,1,1,1,3,1,1,1,3,4,1,4,1,4,1,4,1,4,1,1,1,4,1,1,1,4,3,1,1,3,1,1,3,3,1,1,3,4,3,1,3,4,3,1,3,4,3,1,1,4,3,1,1,1,3,1,1,3,1,1,4,3,1,1,4,4,1,1,1,4,1,1,1,1,3,1,1,1,3,1,1,1,3,1,1,3,1,4,3,3,1,4,3,1,3,1,3,1,3,1,3,1,3,1,1,1,3,1,1,4,3,1,1,3,1,1,4,3,1,1,4,4,3,1,3,4,3,1,3,4,3,1,1,4,3,1,1,4,3,1,1,3,3,1,4,3,3,1,4,4,3,1,3,4,3,1,3,4,3,1,1,4,3,1,1]
letting ub =  302
